COOK = {C1, C2, C3, C4};
DISH = {D1, D2, D3, D4, D5, D6, D7, D8, D9, D10, D11, D12, D13, D14, D15};
no_tasks = 106;
steps = [1..6, 7..11, 12..19, 20..26, 27..32, 33..41, 42..46, 47..54, 55..63, 64..72, 73..79, 80..85, 86..92, 93..99, 100..106];
time = array2d(1..106,COOK,[0, 7, 5, 0, 8, 0, 0, 8, 6, 5, 0, 0, 0, 0, 7, 0, 0, 6, 0, 5, 5, 0, 0, 5, 0, 0, 7, 0, 6, 5, 0, 0, 0, 0, 0, 6, 0, 6, 0, 5, 8, 6, 0, 0, 0, 0, 9, 7, 0, 7, 5, 0, 5, 0, 0, 5, 8, 0, 0, 8, 6, 5, 0, 0, 0, 0, 0, 6, 8, 6, 0, 0, 0, 0, 6, 9, 5, 0, 0, 5, 0, 0, 9, 7, 8, 0, 0, 8, 0, 0, 0, 8, 8, 6, 0, 0, 0, 6, 0, 5, 0, 0, 0, 6, 5, 0, 7, 0, 0, 7, 0, 6, 0, 0, 9, 7, 0, 0, 8, 0, 0, 7, 5, 0, 8, 6, 0, 0, 0, 0, 0, 6, 0, 6, 0, 5, 0, 0, 8, 0, 5, 0, 7, 0, 0, 7, 0, 6, 0, 0, 0, 8, 8, 6, 0, 0, 8, 0, 0, 8, 5, 0, 0, 5, 0, 0, 8, 0, 0, 0, 9, 7, 6, 5, 0, 0, 0, 7, 0, 6, 0, 0, 7, 0, 5, 0, 7, 0, 0, 0, 8, 0, 0, 0, 9, 7, 5, 0, 0, 5, 0, 0, 7, 0, 0, 0, 0, 8, 0, 0, 6, 9, 6, 5, 0, 0, 0, 7, 5, 0, 0, 0, 0, 8, 0, 6, 0, 5, 6, 5, 0, 0, 0, 0, 0, 6, 8, 0, 0, 9, 8, 0, 0, 8, 8, 6, 0, 0, 0, 0, 7, 0, 8, 6, 0, 0, 8, 0, 0, 8, 8, 0, 0, 9, 0, 0, 6, 9, 6, 5, 0, 0, 0, 0, 8, 0, 0, 0, 7, 0, 0, 0, 0, 6, 0, 6, 0, 5, 8, 6, 0, 0, 8, 0, 0, 8, 6, 5, 0, 0, 0, 0, 7, 0, 0, 0, 0, 6, 0, 0, 8, 0, 0, 0, 6, 9, 0, 0, 0, 8, 0, 0, 7, 0, 0, 0, 9, 7, 6, 5, 0, 0, 0, 0, 8, 0, 8, 0, 0, 8, 0, 0, 0, 8, 0, 0, 6, 9, 8, 0, 0, 8, 0, 7, 0, 6, 0, 7, 0, 6, 8, 6, 0, 0, 5, 0, 7, 0, 6, 5, 0, 0, 5, 0, 7, 0, 8, 0, 0, 8, 8, 6, 0, 0, 5, 0, 0, 5, 0, 7, 0, 6, 0, 0, 0, 6, 0, 0, 8, 0, 8, 0, 0, 9, 0, 0, 6, 9, 0, 0, 7, 0, 0, 6, 0, 5, 8, 6, 0, 0, 6, 5, 0, 0]);
